analyze/results_flowersnark/final_miplib_symretope_if_extended_generating_set_cpx_v802__settings_final_nopeek_norelabel_extend_norestarts__0__square31.mps.gz.sol
solution status: optimal solution found
objective value:                                   15
x_1_1_15                            0.999999999999998 	(obj:1)
x_1_16_2                                            1 	(obj:1)
x_1_18_4                                            1 	(obj:1)
x_1_22_5                                            1 	(obj:1)
x_1_27_5                                            1 	(obj:1)
x_3_16_2                                            1 	(obj:1)
x_5_16_5                                            1 	(obj:1)
x_5_21_1                                            1 	(obj:1)
x_6_21_11                                           1 	(obj:1)
x_10_16_5                                           1 	(obj:1)
x_15_16_1                                           1 	(obj:1)
x_15_17_2                                           1 	(obj:1)
x_15_19_2                                           1 	(obj:1)
x_16_1_16                           0.999999999999997 	(obj:1)
x_17_17_15                                          1 	(obj:1)
y_16                                0.999999999999997 	(obj:0)
y_15                                                2 	(obj:0)
y_11                                                1 	(obj:0)
y_5                                                 4 	(obj:0)
y_4                                                 1 	(obj:0)
y_2                                                 4 	(obj:0)
y_1                                                 2 	(obj:0)
